 10	71
 16
  0	 42	 28	113	 64	 99	 16	 87	 65	 12	 83	136	 13	135	 84	143	
 14
  0	 59	  3	 74	130	 61	 36	  9	107	 60	132	 80	131	143	
 24
  0	 37	 56	 19	127	 38	 90	  4	 10	108	 66	 81	109	 67	137	 70	 75	 23	 68	 94	138	139	141	143	
 14
  0	 34	 45	105	 50	116	 51	 52	 11	123	122	121	 82	143	
 12
  0	 21	 27	 98	 48	 92	 24	 18	119	 89	 95	143	
 18
  0	 35	 15	106	 17	 88	 86	 69	 20	140	 91	 55	  2	 73	 14	126	 85	143	
 16
  0	 26	 29	 71	100	142	  1	 25	 97	  6	 77	 43	 72	114	 96	143	
 18
  0	 62	  8	 31	 79	 40	133	102	111	 47	 41	 44	118	112	115	 46	117	143	
 16
  0	 58	 57	129	  5	128	 76	 39	 53	110	  7	124	 78	 49	120	143	
 14
  0	 22	 93	 32	 63	 33	 54	103	104	 30	134	101	125	143	
